============================[ Problem Statistics ]=============================|                                                                             ||  Number of variables:          4242                                         ||  Number of clauses:           10294                                         ||  Parse time:                   0.68 s                                       ||                                                                             |============================[ Search Statistics ]==============================| Conflicts |          ORIGINAL         |          LEARNT          | Progress ||           |    Vars  Clauses Literals |    Limit  Clauses Lit/Cl |          |===============================================================================|       100 |    1591     6499  1087310 |     2382      100     53 | 62.501 % ||       250 |    1591     6499  1087310 |     2621      250     75 | 62.495 % |===============================================================================restarts              : 3conflicts             : 371            (357 /sec)decisions             : 636            (0.00 % random) (612 /sec)propagations          : 11998          (11548 /sec)conflict literals     : 30427          (94.59 % deleted)CPU time              : 1.039 sSATISFIABLE